
Gurobi 11.0.3 (linux64) logging started Tue Apr 14 13:16:30 2026

Set parameter LogFile to value "tree/results/nwth/nwth_depth-4_run-1/Full MIP/LogFile_FullModel.txt"
Gurobi Optimizer version 11.0.3 build v11.0.3rc0 (linux64 - "CentOS Linux 7 (Core)")

CPU model: Intel(R) Xeon(R) Platinum 8260 CPU @ 2.40GHz, instruction set [SSE2|AVX|AVX2|AVX512]
Thread count: 96 physical cores, 192 logical processors, using up to 32 threads

Optimize a model with 33784 rows, 20870 columns and 229194 nonzeros
Model fingerprint: 0x81a5ec31
Model has 2576 general constraints
Variable types: 13094 continuous, 7776 integer (7776 binary)
Coefficient statistics:
  Matrix range     [6e-03, 1e+04]
  Objective range  [6e-03, 1e+04]
  Bounds range     [1e+00, 7e+02]
  RHS range        [1e-04, 1e+03]

User MIP start produced solution with objective -29999 (0.08s)
Loaded user MIP start with objective -29999

Presolve added 2560 rows and 10304 columns
Presolve time: 0.40s
Presolved: 36344 rows, 31174 columns, 249754 nonzeros
Presolved model has 10304 SOS constraint(s)
Variable types: 13094 continuous, 18080 integer (18080 binary)

Deterministic concurrent LP optimizer: primal and dual simplex (primal and dual model)
Showing primal log only...

Root relaxation presolved: 36328 rows, 31158 columns, 249754 nonzeros

Concurrent spin time: 0.37s (can be avoided by choosing Method=3)

Solved with primal simplex

Root relaxation: objective 1.000000e+00, 3672 iterations, 1.29 seconds (1.04 work units)

    Nodes    |    Current Node    |     Objective Bounds      |     Work
 Expl Unexpl |  Obj  Depth IntInf | Incumbent    BestBd   Gap | It/Node Time

     0     0    1.00000    0  521 -29999.019    1.00000   100%     -    4s
     0     2    1.00000    0  521 -29999.019    1.00000   100%     -    9s
     1     4    1.00000    1  600 -29999.019    1.00000   100%   111   11s
    15    32    1.00000    4 1210 -29999.019    1.00000   100%   548   17s
    31    64    1.00000    5 1212 -29999.019    1.00000   100%   571   33s
H   62    64                       0.3105590    1.00000   222%   385   33s
    63    96    1.00000    6 1208    0.31056    1.00000   222%   394   53s
    95   128    1.00000    6 1211    0.31056    1.00000   222%   592   67s
H  119   128                       0.3105593    1.00000   222%   488   67s
   127   160    1.00000    7 1208    0.31056    1.00000   222%   468   85s
   159   192    1.00000    7 1200    0.31056    1.00000   222%   406  165s
   191   247    1.00000    8 1207    0.31056    1.00000   222%   354  170s
   246   302    1.00000    9 1206    0.31056    1.00000   222%   623  497s
   301   814    1.00000    9 1196    0.31056    1.00000   222%   541  533s
   815  2631    1.00000   20 1077    0.31056    1.00000   222%   563  617s
  2634  3870    1.00000   60 1183    0.31056    1.00000   222%   581  974s
  3893  5851    1.00000   60 1131    0.31056    1.00000   222%   688 1339s
  5914  7879    1.00000  134 1154    0.31056    1.00000   222%   775 1670s
  8008 10171    1.00000  248 1102    0.31056    1.00000   222%   819 2080s
 10516 10229    1.00000  248 1206    0.31056    1.00000   222%   788 2541s
 10586 14676    1.00000  249 1102    0.31056    1.00000   222%   791 2813s
 15500 14677    1.00000  140    9    0.31056    1.00000   222%   754 2822s
 15502 14678    1.00000  184   26    0.31056    1.00000   222%   754 2826s
 15503 14679    1.00000  111   26    0.31056    1.00000   222%   754 2834s
 15504 14683    1.00000   10 1867    0.31056    1.00000   222%   755 2838s
 15534 14733    1.00000   14 1865    0.31056    1.00000   222%   753 2844s
 15598 14775    1.00000   15 1863    0.31056    1.00000   222%   750 2845s
 15758 14882    1.00000   18 1862    0.31056    1.00000   222%   743 2898s
 15790 14903    1.00000   18 1862    0.31056    1.00000   222%   742 2967s
 15822 14926    1.00000   19 1861    0.31056    1.00000   222%   740 3207s
 15855 15272    1.00000   19 1862    0.31056    1.00000   222%   739 3221s
H16106 14454                       0.3105593    1.00000   222%   730 3221s
 16212 14902    1.00000   27 1917    0.31056    1.00000   222%   727 3428s
 16695 15287    1.00000   27 1664    0.31056    1.00000   222%   721 3524s
H16782 14560                       0.3540373    1.00000   182%   722 3524s
 17241 15782    1.00000   30 1926    0.35404    1.00000   182%   732 3603s

Explored 18624 nodes (14259397 simplex iterations) in 3603.98 seconds (6216.53 work units)
Thread count was 32 (of 192 available processors)

Solution count 5: 0.354037 0.310559 0.310559 ... -29999

Time limit reached
Best objective 3.540372670807e-01, best bound 1.000000000000e+00, gap 182.4561%

User-callback calls 1402379, time in user-callback 8.85 sec
